p edge 30 41 10
v 3 2 5 9
v 3 13 28 29
v 2 12 19
v 3 14 15 16
v 2 4 25
v 4 7 17 21 26
v 3 6 8 18
v 4 1 20 22 30
v 5 3 11 23 24 27
v 1 10
e 1 6
e 1 15
e 1 22
e 2 15
e 2 29
e 3 6
e 3 14
e 3 15
e 3 17
e 4 10
e 4 20
e 4 23
e 4 29
e 6 8
e 6 27
e 7 12
e 7 17
e 7 23
e 8 12
e 8 20
e 8 25
e 8 27
e 9 16
e 11 16
e 11 22
e 12 28
e 13 22
e 14 22
e 15 18
e 15 26
e 15 27
e 16 19
e 16 22
e 18 22
e 18 23
e 19 28
e 21 23
e 22 25
e 22 27
e 22 28
e 23 25
